RST02
Position Depot: Random
Horizon for Depot: Small
Position of customers: Random
Distribution of the demand: Small
Width of time windows: Tight
Distribution of the service: Small

VEHICLE 
NUMBER 	 CAPACITY 
 5 	 	 145 
 
CUSTOMER
CUST NO. 	 XCOORD.  	 YCOORD. 	 DEMAND 	 READY TIME 	 DUE DATE 	 SERVICE TIME 
 0 	 	 46 	 	 286 	 	 0 	 	 0 	 	 1796 	 	 0 
  1 	 	 924 	 	 553 	 	 8 	 	 958 	 	 1009 	 	 62 
  2 	 	 821 	 	 687 	 	 9 	 	 864 	 	 959 	 	 80 
  3 	 	 594 	 	 281 	 	 7 	 	 1157 	 	 1299 	 	 91 
  4 	 	 873 	 	 304 	 	 10 	 	 1471 	 	 1669 	 	 84 
  5 	 	 978 	 	 458 	 	 7 	 	 968 	 	 1151 	 	 86 
  6 	 	 67 	 	 151 	 	 7 	 	 1502 	 	 1630 	 	 98 
  7 	 	 339 	 	 130 	 	 5 	 	 1690 	 	 1796 	 	 83 
  8 	 	 982 	 	 305 	 	 9 	 	 1436 	 	 1533 	 	 55 
  9 	 	 108 	 	 546 	 	 10 	 	 1032 	 	 1227 	 	 88 
  10 	 	 463 	 	 722 	 	 6 	 	 814 	 	 908 	 	 63 
  11 	 	 316 	 	 929 	 	 6 	 	 1240 	 	 1376 	 	 94 
  12 	 	 475 	 	 776 	 	 8 	 	 577 	 	 716 	 	 67 
  13 	 	 670 	 	 709 	 	 6 	 	 695 	 	 829 	 	 62 
  14 	 	 787 	 	 323 	 	 7 	 	 738 	 	 874 	 	 63 
  15 	 	 585 	 	 537 	 	 8 	 	 455 	 	 654 	 	 77 
  16 	 	 795 	 	 903 	 	 9 	 	 1654 	 	 1796 	 	 72 
  17 	 	 517 	 	 121 	 	 7 	 	 402 	 	 548 	 	 98 
  18 	 	 258 	 	 775 	 	 7 	 	 1263 	 	 1430 	 	 90 
  19 	 	 674 	 	 823 	 	 7 	 	 983 	 	 1080 	 	 59 
  20 	 	 930 	 	 936 	 	 8 	 	 1658 	 	 1792 	 	 52 
  21 	 	 330 	 	 781 	 	 8 	 	 473 	 	 627 	 	 52 
  22 	 	 449 	 	 550 	 	 10 	 	 1216 	 	 1307 	 	 64 
  23 	 	 654 	 	 728 	 	 6 	 	 1143 	 	 1294 	 	 56 
  24 	 	 692 	 	 156 	 	 6 	 	 1274 	 	 1412 	 	 51 
  25 	 	 912 	 	 864 	 	 8 	 	 1519 	 	 1688 	 	 78 
  26 	 	 541 	 	 919 	 	 6 	 	 863 	 	 1056 	 	 97 
  27 	 	 836 	 	 182 	 	 5 	 	 754 	 	 876 	 	 85 
  28 	 	 491 	 	 11 	 	 10 	 	 1371 	 	 1434 	 	 75 
  29 	 	 973 	 	 298 	 	 5 	 	 923 	 	 1019 	 	 96 
  30 	 	 707 	 	 925 	 	 6 	 	 819 	 	 1011 	 	 94 
  31 	 	 659 	 	 248 	 	 6 	 	 580 	 	 675 	 	 76 
  32 	 	 337 	 	 151 	 	 7 	 	 160 	 	 352 	 	 70 
  33 	 	 88 	 	 1 	 	 7 	 	 399 	 	 483 	 	 70 
  34 	 	 562 	 	 383 	 	 6 	 	 1386 	 	 1494 	 	 61 
  35 	 	 681 	 	 300 	 	 7 	 	 637 	 	 698 	 	 56 
  36 	 	 383 	 	 800 	 	 7 	 	 1714 	 	 1775 	 	 81 
  37 	 	 71 	 	 810 	 	 8 	 	 1461 	 	 1631 	 	 65 
  38 	 	 182 	 	 700 	 	 7 	 	 471 	 	 605 	 	 60 
  39 	 	 505 	 	 839 	 	 10 	 	 609 	 	 790 	 	 86 
  40 	 	 866 	 	 499 	 	 7 	 	 854 	 	 931 	 	 98 
  41 	 	 408 	 	 742 	 	 5 	 	 578 	 	 640 	 	 78 
  42 	 	 998 	 	 170 	 	 9 	 	 1186 	 	 1383 	 	 82 
  43 	 	 861 	 	 789 	 	 5 	 	 993 	 	 1053 	 	 87 
  44 	 	 513 	 	 369 	 	 5 	 	 1314 	 	 1454 	 	 89 
  45 	 	 890 	 	 564 	 	 10 	 	 1461 	 	 1543 	 	 64 
  46 	 	 237 	 	 308 	 	 8 	 	 78 	 	 211 	 	 58 
  47 	 	 512 	 	 903 	 	 5 	 	 670 	 	 850 	 	 65 
  48 	 	 585 	 	 71 	 	 7 	 	 1479 	 	 1566 	 	 64 
  49 	 	 271 	 	 813 	 	 9 	 	 908 	 	 1091 	 	 88 
  50 	 	 597 	 	 701 	 	 7 	 	 675 	 	 758 	 	 99 
  51 	 	 655 	 	 344 	 	 8 	 	 780 	 	 915 	 	 89 
  52 	 	 110 	 	 156 	 	 6 	 	 983 	 	 1127 	 	 86 
  53 	 	 673 	 	 710 	 	 10 	 	 668 	 	 832 	 	 79 
  54 	 	 373 	 	 428 	 	 5 	 	 822 	 	 983 	 	 89 
  55 	 	 276 	 	 617 	 	 9 	 	 392 	 	 443 	 	 72 
  56 	 	 384 	 	 101 	 	 6 	 	 664 	 	 761 	 	 52 
  57 	 	 104 	 	 582 	 	 5 	 	 1224 	 	 1409 	 	 98 
  58 	 	 486 	 	 781 	 	 10 	 	 540 	 	 728 	 	 64 
  59 	 	 466 	 	 662 	 	 6 	 	 478 	 	 626 	 	 56 
  60 	 	 99 	 	 985 	 	 5 	 	 1172 	 	 1252 	 	 85 
  61 	 	 323 	 	 246 	 	 9 	 	 363 	 	 530 	 	 79 
  62 	 	 152 	 	 342 	 	 5 	 	 845 	 	 923 	 	 64 
  63 	 	 104 	 	 733 	 	 7 	 	 347 	 	 495 	 	 91 
  64 	 	 750 	 	 722 	 	 8 	 	 789 	 	 910 	 	 54 
  65 	 	 799 	 	 225 	 	 5 	 	 736 	 	 831 	 	 54 
  66 	 	 645 	 	 33 	 	 9 	 	 615 	 	 715 	 	 72 
  67 	 	 69 	 	 593 	 	 8 	 	 1444 	 	 1635 	 	 84 
  68 	 	 467 	 	 234 	 	 9 	 	 1280 	 	 1346 	 	 51 
  69 	 	 319 	 	 864 	 	 5 	 	 1577 	 	 1694 	 	 55 
  70 	 	 235 	 	 805 	 	 10 	 	 854 	 	 993 	 	 68 
  71 	 	 971 	 	 587 	 	 10 	 	 952 	 	 1070 	 	 87 
  72 	 	 494 	 	 595 	 	 9 	 	 1155 	 	 1276 	 	 83 
  73 	 	 84 	 	 679 	 	 7 	 	 578 	 	 728 	 	 54 
  74 	 	 602 	 	 12 	 	 6 	 	 612 	 	 681 	 	 58 
  75 	 	 401 	 	 458 	 	 7 	 	 1690 	 	 1796 	 	 56 
  76 	 	 809 	 	 918 	 	 6 	 	 892 	 	 1089 	 	 90 
  77 	 	 45 	 	 341 	 	 6 	 	 1346 	 	 1496 	 	 57 
  78 	 	 444 	 	 328 	 	 5 	 	 435 	 	 618 	 	 57 
  79 	 	 199 	 	 158 	 	 5 	 	 768 	 	 882 	 	 93 
  80 	 	 430 	 	 616 	 	 6 	 	 1110 	 	 1192 	 	 67 
  81 	 	 584 	 	 19 	 	 9 	 	 658 	 	 800 	 	 54 
  82 	 	 463 	 	 956 	 	 6 	 	 1199 	 	 1348 	 	 66 
  83 	 	 285 	 	 993 	 	 7 	 	 1254 	 	 1423 	 	 63 
  84 	 	 722 	 	 92 	 	 7 	 	 890 	 	 1035 	 	 68 
  85 	 	 971 	 	 623 	 	 6 	 	 1030 	 	 1082 	 	 76 
  86 	 	 956 	 	 102 	 	 10 	 	 1168 	 	 1235 	 	 91 
  87 	 	 621 	 	 458 	 	 9 	 	 1093 	 	 1258 	 	 62 
  88 	 	 953 	 	 950 	 	 7 	 	 1116 	 	 1236 	 	 98 
  89 	 	 522 	 	 448 	 	 6 	 	 444 	 	 614 	 	 93 
  90 	 	 92 	 	 138 	 	 6 	 	 1067 	 	 1178 	 	 71 
  91 	 	 657 	 	 279 	 	 6 	 	 1669 	 	 1735 	 	 82 
  92 	 	 794 	 	 139 	 	 10 	 	 645 	 	 838 	 	 76 
  93 	 	 833 	 	 28 	 	 6 	 	 860 	 	 911 	 	 71 
  94 	 	 218 	 	 328 	 	 8 	 	 605 	 	 777 	 	 55 
  95 	 	 595 	 	 739 	 	 6 	 	 614 	 	 782 	 	 54 
  96 	 	 855 	 	 769 	 	 10 	 	 1165 	 	 1294 	 	 96 
  97 	 	 610 	 	 822 	 	 6 	 	 790 	 	 855 	 	 69 
  98 	 	 563 	 	 660 	 	 8 	 	 546 	 	 701 	 	 50 
  99 	 	 529 	 	 608 	 	 9 	 	 500 	 	 689 	 	 93 
  100 	 	 16 	 	 286 	 	 5 	 	 522 	 	 624 	 	 74 
 